unknown
(model
; cardinality of BoundSet is 2
(declare-sort BoundSet 0)
; rep: @uc_BoundSet_0
; rep: @uc_BoundSet_1
; cardinality of UnboundSet is 1
(declare-sort UnboundSet 0)
(declare-fun groundTerm_3 () UnboundSet)
(define-fun IsAffectedBy ((BOUND_VARIABLE_410 BoundSet) (BOUND_VARIABLE_411 BoundSet)) Bool true)
(define-fun IsSignificantPortion ((BOUND_VARIABLE_418 BoundSet)) Bool false)
(define-fun IsImpactedBy ((BOUND_VARIABLE_410 BoundSet) (BOUND_VARIABLE_411 BoundSet)) Bool false)
)
sat
(model
; cardinality of BoundSet is 1
(declare-sort BoundSet 0)
; rep: @uc_BoundSet_0
; cardinality of UnboundSet is 1
(declare-sort UnboundSet 0)
(declare-fun groundTerm_6 () UnboundSet)
(define-fun IsAffectedBy ((BOUND_VARIABLE_451 BoundSet) (BOUND_VARIABLE_452 BoundSet)) Bool true)
(define-fun IsSignificantPortion ((BOUND_VARIABLE_455 BoundSet)) Bool true)
(define-fun IsImpactedBy ((BOUND_VARIABLE_451 BoundSet) (BOUND_VARIABLE_452 BoundSet)) Bool false)
)
